NAME: GRASP_31_18
TYPE: TSP
COMMENT: line_31_18
DIMENSION: 31
EDGE_WEIGHT_TYPE: EUC_2D
NODE_COORD_SECTION
1 4206 3194
2 1083 1811
3 1704 1268
4 2097 4626
5 3864 1714
6 2867 3029
7 3916 2032
8 2187 2251
9 2874 2013
10 2819 2486
11 775 1407
12 2455 3185
13 1818 2762
14 4510 2579
15 3139 4419
16 2174 244
17 4606 1609
18 4046 4845
19 2704 1139
20 3834 225
21 1455 2426
22 4869 4839
23 4856 1893
24 10 2413
25 2545 3301
26 3585 2021
27 3694 4167
28 2063 248
29 3878 831
30 1629 125
31 4242 2138
